.Version 9.2.0 of ABINIT

 ABINIT is a project of the Universite Catholique de Louvain,
 Corning Inc. and other collaborators, see ~abinit/doc/developers/contributors.txt .
 acknowledgments of the ABINIT effort.

.Starting date : Mon 21 Sep 2020.
- ( at 02h26 )

- input  file    -> /Users/gmatteo/git_repos/MgO_eph_zpr/flow_zpr_mgo/w0/t1/run.abi
- output file    -> /Users/gmatteo/git_repos/MgO_eph_zpr/flow_zpr_mgo/w0/t1/run.abo
- root for input  files -> /Users/gmatteo/git_repos/MgO_eph_zpr/flow_zpr_mgo/w0/t1/indata/in
- root for output files -> /Users/gmatteo/git_repos/MgO_eph_zpr/flow_zpr_mgo/w0/t1/outdata/out

 Symmetries : space group Fm -3 m (#225); Bravais cF (face-center cubic)
     intxc =       0    ionmov =       0      iscf =      -2    lmnmax =       5
     lnmax =       5     mgfft =      32  mpssoang =       3    mqgrid =    3001
     natom =       2  nloc_mem =       1    nspden =       1   nspinor =       1
    nsppol =       1      nsym =      48    n1xccc =    2501    ntypat =       2
    occopt =       1   xclevel =       2
-    mband =          12        mffmem =           1         mkmem =          99
       mpw =        1307          nfft =       32768          nkpt =         198
  Rough estimation (10% accuracy) of disk space for files :

------------- Echo of variables that govern the present computation ------------
-
- outvars: echo of selected default values
-   iomode0 =  0 , fftalg0 =312 , wfoptalg0 =  0
-
- outvars: echo of global parameters not present in the input file
-  max_nthreads =    0
-
 -outvars: echo values of preprocessed input variables --------
-          iomode           3
            acell      1.0000000000E+00  1.0000000000E+00  1.0000000000E+00 Bohr
              amu      1.59994000E+01  2.43050000E+01
           diemac      9.00000000E+00
             ecut      3.50000000E+01 Hartree
-          fftalg         312
           irdden           1
             iscf          -2
           istwfk        2    0    0    0    0    0    0    0    0    0
                         0    0    0    0    0    0    0    0    0    0
                         0    0    0    0    0    0    0    0    5    0
                         0    0    0    0    0    0    0    0    0    0
                         0    0    0    0    0    0    0    0    0    0
                       outvar_i_n : Printing only first  50 k-points.
              ixc          11
              kpt      0.00000000E+00  0.00000000E+00  0.00000000E+00
                       1.78571429E-02  0.00000000E+00  1.78571429E-02
                       3.57142857E-02  0.00000000E+00  3.57142857E-02
                       5.35714286E-02  0.00000000E+00  5.35714286E-02
                       7.14285714E-02  0.00000000E+00  7.14285714E-02
                       8.92857143E-02  0.00000000E+00  8.92857143E-02
                       1.07142857E-01  0.00000000E+00  1.07142857E-01
                       1.25000000E-01  0.00000000E+00  1.25000000E-01
                       1.42857143E-01  0.00000000E+00  1.42857143E-01
                       1.60714286E-01  0.00000000E+00  1.60714286E-01
                       1.78571429E-01  0.00000000E+00  1.78571429E-01
                       1.96428571E-01  0.00000000E+00  1.96428571E-01
                       2.14285714E-01  0.00000000E+00  2.14285714E-01
                       2.32142857E-01  0.00000000E+00  2.32142857E-01
                       2.50000000E-01  0.00000000E+00  2.50000000E-01
                       2.67857143E-01  0.00000000E+00  2.67857143E-01
                       2.85714286E-01  0.00000000E+00  2.85714286E-01
                       3.03571429E-01  0.00000000E+00  3.03571429E-01
                       3.21428571E-01  0.00000000E+00  3.21428571E-01
                       3.39285714E-01  0.00000000E+00  3.39285714E-01
                       3.57142857E-01  0.00000000E+00  3.57142857E-01
                       3.75000000E-01  0.00000000E+00  3.75000000E-01
                       3.92857143E-01  0.00000000E+00  3.92857143E-01
                       4.10714286E-01  0.00000000E+00  4.10714286E-01
                       4.28571429E-01  0.00000000E+00  4.28571429E-01
                       4.46428571E-01  0.00000000E+00  4.46428571E-01
                       4.64285714E-01  0.00000000E+00  4.64285714E-01
                       4.82142857E-01  0.00000000E+00  4.82142857E-01
                       5.00000000E-01  0.00000000E+00  5.00000000E-01
                       5.00000000E-01  1.78571429E-02  5.17857143E-01
                       5.00000000E-01  3.57142857E-02  5.35714286E-01
                       5.00000000E-01  5.35714286E-02  5.53571429E-01
                       5.00000000E-01  7.14285714E-02  5.71428571E-01
                       5.00000000E-01  8.92857143E-02  5.89285714E-01
                       5.00000000E-01  1.07142857E-01  6.07142857E-01
                       5.00000000E-01  1.25000000E-01  6.25000000E-01
                       5.00000000E-01  1.42857143E-01  6.42857143E-01
                       5.00000000E-01  1.60714286E-01  6.60714286E-01
                       5.00000000E-01  1.78571429E-01  6.78571429E-01
                       5.00000000E-01  1.96428571E-01  6.96428571E-01
                       5.00000000E-01  2.14285714E-01  7.14285714E-01
                       5.00000000E-01  2.32142857E-01  7.32142857E-01
                       5.00000000E-01  2.50000000E-01  7.50000000E-01
                       4.87500000E-01  2.62500000E-01  7.50000000E-01
                       4.75000000E-01  2.75000000E-01  7.50000000E-01
                       4.62500000E-01  2.87500000E-01  7.50000000E-01
                       4.50000000E-01  3.00000000E-01  7.50000000E-01
                       4.37500000E-01  3.12500000E-01  7.50000000E-01
                       4.25000000E-01  3.25000000E-01  7.50000000E-01
                       4.12500000E-01  3.37500000E-01  7.50000000E-01
                       outvar_i_n : Printing only first  50 k-points.
           kptopt         -11
P           mkmem          99
            natom           2
            nband          12
           nbdbuf           4
           ndivsm          10
            ngfft          32      32      32
             nkpt         198
            nstep         150
             nsym          48
           ntypat           2
           prtden           0
           prtpot           1
            prtwf          -1
            rprim      0.0000000000E+00  4.0182361526E+00  4.0182361526E+00
                       4.0182361526E+00  0.0000000000E+00  4.0182361526E+00
                       4.0182361526E+00  4.0182361526E+00  0.0000000000E+00
           shiftk      5.00000000E-01  5.00000000E-01  5.00000000E-01
          spgroup         225
           symrel      1  0  0   0  1  0   0  0  1      -1  0  0   0 -1  0   0  0 -1
                       0 -1  1   0 -1  0   1 -1  0       0  1 -1   0  1  0  -1  1  0
                      -1  0  0  -1  0  1  -1  1  0       1  0  0   1  0 -1   1 -1  0
                       0  1 -1   1  0 -1   0  0 -1       0 -1  1  -1  0  1   0  0  1
                      -1  0  0  -1  1  0  -1  0  1       1  0  0   1 -1  0   1  0 -1
                       0 -1  1   1 -1  0   0 -1  0       0  1 -1  -1  1  0   0  1  0
                       1  0  0   0  0  1   0  1  0      -1  0  0   0  0 -1   0 -1  0
                       0  1 -1   0  0 -1   1  0 -1       0 -1  1   0  0  1  -1  0  1
                      -1  0  1  -1  1  0  -1  0  0       1  0 -1   1 -1  0   1  0  0
                       0 -1  0   1 -1  0   0 -1  1       0  1  0  -1  1  0   0  1 -1
                       1  0 -1   0  0 -1   0  1 -1      -1  0  1   0  0  1   0 -1  1
                       0  1  0   0  0  1   1  0  0       0 -1  0   0  0 -1  -1  0  0
                       1  0 -1   0  1 -1   0  0 -1      -1  0  1   0 -1  1   0  0  1
                       0 -1  0   0 -1  1   1 -1  0       0  1  0   0  1 -1  -1  1  0
                      -1  0  1  -1  0  0  -1  1  0       1  0 -1   1  0  0   1 -1  0
                       0  1  0   1  0  0   0  0  1       0 -1  0  -1  0  0   0  0 -1
                       0  0 -1   0  1 -1   1  0 -1       0  0  1   0 -1  1  -1  0  1
                       1 -1  0   0 -1  1   0 -1  0      -1  1  0   0  1 -1   0  1  0
                       0  0  1   1  0  0   0  1  0       0  0 -1  -1  0  0   0 -1  0
                      -1  1  0  -1  0  0  -1  0  1       1 -1  0   1  0  0   1  0 -1
                       0  0  1   0  1  0   1  0  0       0  0 -1   0 -1  0  -1  0  0
                       1 -1  0   0 -1  0   0 -1  1      -1  1  0   0  1  0   0  1 -1
                       0  0 -1   1  0 -1   0  1 -1       0  0  1  -1  0  1   0 -1  1
                      -1  1  0  -1  0  1  -1  0  0       1 -1  0   1  0 -1   1  0  0
           tolwfr      1.00000000E-18
            typat      2  1
                       outvars : Printing only first  50 k-points.
           xangst      0.0000000000E+00  0.0000000000E+00  0.0000000000E+00
                       2.1263589907E+00  2.1263589907E+00  2.1263589907E+00
            xcart      0.0000000000E+00  0.0000000000E+00  0.0000000000E+00
                       4.0182361526E+00  4.0182361526E+00  4.0182361526E+00
             xred      0.0000000000E+00  0.0000000000E+00  0.0000000000E+00
                       5.0000000000E-01  5.0000000000E-01  5.0000000000E-01
            znucl        8.00000   12.00000

 chkinp: Checking input parameters for consistency.

== DATASET  1 ==================================================================
-   mpi_nproc: 2, omp_nthreads: -1 (-1 if OMP is not activated)

--- !DatasetInfo
iteration_state: {dtset: 1, }
dimensions: {natom: 2, nkpt: 198, mband: 12, nsppol: 1, nspinor: 1, nspden: 1, mpw: 1307, }
cutoff_energies: {ecut:  35.0, pawecutdg:  -1.0, }
electrons: {nelect:   1.60000000E+01, charge:   0.00000000E+00, occopt:   1.00000000E+00, tsmear:   1.00000000E-02, }
meta: {optdriver: 0, ionmov: 0, optcell: 0, iscf: -2, paral_kgb: 0, }
...

 Real(R)+Recip(G) space primitive vectors, cartesian coordinates (Bohr,Bohr^-1):
 R(1)=  0.0000000  4.0182362  4.0182362  G(1)= -0.1244327  0.1244327  0.1244327
 R(2)=  4.0182362  0.0000000  4.0182362  G(2)=  0.1244327 -0.1244327  0.1244327
 R(3)=  4.0182362  4.0182362  0.0000000  G(3)=  0.1244327  0.1244327 -0.1244327
 Unit cell volume ucvol=  1.2975866E+02 bohr^3
 Angles (23,13,12)=  6.00000000E+01  6.00000000E+01  6.00000000E+01 degrees

 getcut: wavevector=  0.0000  0.0000  0.0000  ngfft=  32  32  32
         ecut(hartree)=     35.000   => boxcut(ratio)=   2.11446

--- Pseudopotential description ------------------------------------------------
- pspini: atom type   1  psp file is /Users/gmatteo/git_repos/MgO_eph_zpr/O.psp8
- pspatm: opening atomic psp file    /Users/gmatteo/git_repos/MgO_eph_zpr/O.psp8
- O     ONCVPSP  r_core=  1.36  1.46  1.26
-  8.00000   6.00000    151103                znucl, zion, pspdat
    8   11    2    4       600   0.00000      pspcod,pspxc,lmax,lloc,mmax,r2well
    5.99000000000000    4.00000000000000    0.00000000000000   rchrg,fchrg,qchrg
     nproj     2     2     1
     extension_switch     1
  pspatm : epsatm=    6.19401560
[...]
   0.46303    0.61411    0.72327    0.76201
 kpt# 159, nband= 12, wtk=  1.00000, kpt=  0.4632  0.4632  0.5735 (reduced coord)
  -2.49980   -1.28009   -1.27802   -1.27787   -0.41453    0.00667    0.12701    0.13988
   0.46988    0.61281    0.71011    0.76559
 kpt# 160, nband= 12, wtk=  1.00000, kpt=  0.4559  0.4559  0.5882 (reduced coord)
  -2.49979   -1.28004   -1.27809   -1.27789   -0.41393    0.00928    0.12102    0.13880
   0.47770    0.61126    0.69674    0.76977
 kpt# 161, nband= 12, wtk=  1.00000, kpt=  0.4485  0.4485  0.6029 (reduced coord)
  -2.49979   -1.27999   -1.27818   -1.27791   -0.41326    0.01231    0.11448    0.13759
   0.48617    0.60948    0.68357    0.77442
 kpt# 162, nband= 12, wtk=  1.00000, kpt=  0.4412  0.4412  0.6176 (reduced coord)
  -2.49978   -1.27992   -1.27830   -1.27794   -0.41252    0.01573    0.10758    0.13627
   0.49502    0.60756    0.67092    0.77941
 kpt# 163, nband= 12, wtk=  1.00000, kpt=  0.4338  0.4338  0.6324 (reduced coord)
  -2.49977   -1.27984   -1.27840   -1.27797   -0.41175    0.01950    0.10050    0.13489
   0.50387    0.60554    0.65903    0.78460
 kpt# 164, nband= 12, wtk=  1.00000, kpt=  0.4265  0.4265  0.6471 (reduced coord)
  -2.49977   -1.27977   -1.27852   -1.27802   -0.41097    0.02357    0.09340    0.13346
   0.51234    0.60353    0.64809    0.78978
 kpt# 165, nband= 12, wtk=  1.00000, kpt=  0.4191  0.4191  0.6618 (reduced coord)
  -2.49976   -1.27968   -1.27863   -1.27805   -0.41019    0.02788    0.08648    0.13203
   0.51998    0.60169    0.63825    0.79490
 kpt# 166, nband= 12, wtk=  1.00000, kpt=  0.4118  0.4118  0.6765 (reduced coord)
  -2.49975   -1.27960   -1.27875   -1.27808   -0.40944    0.03230    0.07990    0.13061
   0.52634    0.60014    0.62965    0.79977
 kpt# 167, nband= 12, wtk=  1.00000, kpt=  0.4044  0.4044  0.6912 (reduced coord)
  -2.49975   -1.27952   -1.27886   -1.27811   -0.40875    0.03663    0.07396    0.12924
   0.53101    0.59888    0.62254    0.80433
 kpt# 168, nband= 12, wtk=  1.00000, kpt=  0.3971  0.3971  0.7059 (reduced coord)
  -2.49974   -1.27944   -1.27896   -1.27815   -0.40814    0.04048    0.06911    0.12796
   0.53372    0.59746    0.61742    0.80843
 kpt# 169, nband= 12, wtk=  1.00000, kpt=  0.3897  0.3897  0.7206 (reduced coord)
  -2.49974   -1.27941   -1.27904   -1.27819   -0.40765    0.04302    0.06619    0.12676
   0.53460    0.59501    0.61484    0.81254
 kpt# 170, nband= 12, wtk=  1.00000, kpt=  0.3824  0.3824  0.7353 (reduced coord)
  -2.49973   -1.27943   -1.27905   -1.27825   -0.40731    0.04331    0.06621    0.12569
   0.53403    0.59116    0.61472    0.81568
 kpt# 171, nband= 12, wtk=  1.00000, kpt=  0.3750  0.3750  0.7500 (reduced coord)
  -2.49973   -1.27946   -1.27901   -1.27828   -0.40713    0.04155    0.06897    0.12477
   0.53248    0.58635    0.61615    0.81772
 kpt# 172, nband= 12, wtk=  1.00000, kpt=  0.3897  0.3676  0.7426 (reduced coord)
  -2.49973   -1.27942   -1.27901   -1.27823   -0.40718    0.04278    0.06736    0.12482
   0.53407    0.58899    0.61507    0.80822
 kpt# 173, nband= 12, wtk=  1.00000, kpt=  0.4044  0.3603  0.7353 (reduced coord)
  -2.49973   -1.27940   -1.27904   -1.27823   -0.40723    0.04394    0.06635    0.12411
   0.53686    0.59165    0.61367    0.79604
 kpt# 174, nband= 12, wtk=  1.00000, kpt=  0.4191  0.3529  0.7279 (reduced coord)
  -2.49973   -1.27938   -1.27904   -1.27824   -0.40728    0.04486    0.06605    0.12280
   0.54067    0.59409    0.61218    0.78422
 kpt# 175, nband= 12, wtk=  1.00000, kpt=  0.4338  0.3456  0.7206 (reduced coord)
  -2.49973   -1.27937   -1.27902   -1.27824   -0.40732    0.04545    0.06649    0.12103
   0.54525    0.59588    0.61091    0.77335
 kpt# 176, nband= 12, wtk=  1.00000, kpt=  0.4485  0.3382  0.7132 (reduced coord)
  -2.49973   -1.27937   -1.27901   -1.27825   -0.40737    0.04570    0.06749    0.11906
   0.55019    0.59640    0.61039    0.76377
 kpt# 177, nband= 12, wtk=  1.00000, kpt=  0.4632  0.3309  0.7059 (reduced coord)
  -2.49974   -1.27937   -1.27898   -1.27826   -0.40740    0.04574    0.06876    0.11715
   0.55505    0.59549    0.61084    0.75600
 kpt# 178, nband= 12, wtk=  1.00000, kpt=  0.4779  0.3235  0.6985 (reduced coord)
  -2.49974   -1.27938   -1.27896   -1.27827   -0.40742    0.04567    0.06990    0.11561
   0.55914    0.59383    0.61169    0.75046
 kpt# 179, nband= 12, wtk=  1.00000, kpt=  0.4926  0.3162  0.6912 (reduced coord)
  -2.49974   -1.27937   -1.27895   -1.27826   -0.40743    0.04562    0.07059    0.11475
   0.56160    0.59256    0.61228    0.74759
 kpt# 180, nband= 12, wtk=  1.00000, kpt=  0.5074  0.3088  0.6838 (reduced coord)
  -2.49974   -1.27937   -1.27895   -1.27826   -0.40743    0.04562    0.07059    0.11475
   0.56160    0.59256    0.61228    0.74759
 kpt# 181, nband= 12, wtk=  1.00000, kpt=  0.5221  0.3015  0.6765 (reduced coord)
  -2.49974   -1.27938   -1.27896   -1.27827   -0.40742    0.04567    0.06990    0.11561
   0.55914    0.59383    0.61169    0.75046
 kpt# 182, nband= 12, wtk=  1.00000, kpt=  0.5368  0.2941  0.6691 (reduced coord)
  -2.49974   -1.27937   -1.27898   -1.27826   -0.40740    0.04574    0.06876    0.11715
   0.55505    0.59549    0.61084    0.75600
 kpt# 183, nband= 12, wtk=  1.00000, kpt=  0.5515  0.2868  0.6618 (reduced coord)
  -2.49973   -1.27937   -1.27901   -1.27825   -0.40737    0.04570    0.06749    0.11906
   0.55019    0.59640    0.61039    0.76377
 kpt# 184, nband= 12, wtk=  1.00000, kpt=  0.5662  0.2794  0.6544 (reduced coord)
  -2.49973   -1.27937   -1.27902   -1.27824   -0.40732    0.04545    0.06649    0.12103
   0.54525    0.59588    0.61091    0.77335
 kpt# 185, nband= 12, wtk=  1.00000, kpt=  0.5809  0.2721  0.6471 (reduced coord)
  -2.49973   -1.27938   -1.27904   -1.27824   -0.40728    0.04486    0.06605    0.12280
   0.54067    0.59409    0.61218    0.78422
 kpt# 186, nband= 12, wtk=  1.00000, kpt=  0.5956  0.2647  0.6397 (reduced coord)
  -2.49973   -1.27940   -1.27904   -1.27823   -0.40723    0.04394    0.06635    0.12411
   0.53686    0.59165    0.61367    0.79604
 kpt# 187, nband= 12, wtk=  1.00000, kpt=  0.6103  0.2574  0.6324 (reduced coord)
  -2.49973   -1.27942   -1.27901   -1.27823   -0.40718    0.04278    0.06736    0.12482
   0.53407    0.58899    0.61507    0.80821
 kpt# 188, nband= 12, wtk=  1.00000, kpt=  0.6250  0.2500  0.6250 (reduced coord)
  -2.49973   -1.27946   -1.27901   -1.27828   -0.40713    0.04155    0.06897    0.12477
   0.53248    0.58635    0.61615    0.81806
 kpt# 189, nband= 12, wtk=  1.00000, kpt=  0.6125  0.2250  0.6125 (reduced coord)
  -2.49973   -1.27953   -1.27892   -1.27832   -0.40705    0.03768    0.07546    0.12341
   0.52906    0.57732    0.61926    0.82191
 kpt# 190, nband= 12, wtk=  1.00000, kpt=  0.6000  0.2000  0.6000 (reduced coord)
  -2.49973   -1.27955   -1.27880   -1.27830   -0.40706    0.03417    0.08214    0.12221
   0.52538    0.56784    0.62232    0.82514
 kpt# 191, nband= 12, wtk=  1.00000, kpt=  0.5875  0.1750  0.5875 (reduced coord)
  -2.49973   -1.27962   -1.27875   -1.27832   -0.40716    0.03103    0.08879    0.12109
   0.52160    0.55821    0.62509    0.83009
 kpt# 192, nband= 12, wtk=  1.00000, kpt=  0.5750  0.1500  0.5750 (reduced coord)
  -2.49972   -1.27967   -1.27870   -1.27836   -0.40730    0.02829    0.09525    0.12010
   0.51784    0.54893    0.62760    0.83390
 kpt# 193, nband= 12, wtk=  1.00000, kpt=  0.5625  0.1250  0.5625 (reduced coord)
  -2.49972   -1.27970   -1.27862   -1.27838   -0.40747    0.02594    0.10128    0.11927
   0.51419    0.54047    0.62985    0.83415
 kpt# 194, nband= 12, wtk=  1.00000, kpt=  0.5500  0.1000  0.5500 (reduced coord)
  -2.49972   -1.27974   -1.27855   -1.27840   -0.40764    0.02402    0.10665    0.11857
   0.51067    0.53329    0.63172    0.83844
 kpt# 195, nband= 12, wtk=  1.00000, kpt=  0.5375  0.0750  0.5375 (reduced coord)
  -2.49972   -1.27980   -1.27850   -1.27844   -0.40779    0.02251    0.11112    0.11800
   0.50739    0.52773    0.63314    0.84209
 kpt# 196, nband= 12, wtk=  1.00000, kpt=  0.5250  0.0500  0.5250 (reduced coord)
  -2.49972   -1.27982   -1.27848   -1.27847   -0.40790    0.02143    0.11447    0.11760
   0.50462    0.52391    0.63422    0.84459
 kpt# 197, nband= 12, wtk=  1.00000, kpt=  0.5125  0.0250  0.5125 (reduced coord)
  -2.49972   -1.27988   -1.27849   -1.27848   -0.40798    0.02074    0.11657    0.11736
   0.50273    0.52172    0.63487    0.84653
 kpt# 198, nband= 12, wtk=  1.00000, kpt=  0.5000  0.0000  0.5000 (reduced coord)
  -2.49972   -1.27989   -1.27849   -1.27849   -0.40800    0.02052    0.11728    0.11728
   0.50206    0.52101    0.63509    0.84697

== END DATASET(S) ==============================================================

 -outvars: echo values of variables after computation  --------
-          iomode           3
            acell      1.0000000000E+00  1.0000000000E+00  1.0000000000E+00 Bohr
              amu      1.59994000E+01  2.43050000E+01
           diemac      9.00000000E+00
             ecut      3.50000000E+01 Hartree
-          fftalg         312
           irdden           1
             iscf          -2
           istwfk        2    0    0    0    0    0    0    0    0    0
                         0    0    0    0    0    0    0    0    0    0
                         0    0    0    0    0    0    0    0    5    0
                         0    0    0    0    0    0    0    0    0    0
                         0    0    0    0    0    0    0    0    0    0
                       outvar_i_n : Printing only first  50 k-points.
              ixc          11
              kpt      0.00000000E+00  0.00000000E+00  0.00000000E+00
                       1.78571429E-02  0.00000000E+00  1.78571429E-02
                       3.57142857E-02  0.00000000E+00  3.57142857E-02
                       5.35714286E-02  0.00000000E+00  5.35714286E-02
                       7.14285714E-02  0.00000000E+00  7.14285714E-02
                       8.92857143E-02  0.00000000E+00  8.92857143E-02
                       1.07142857E-01  0.00000000E+00  1.07142857E-01
                       1.25000000E-01  0.00000000E+00  1.25000000E-01
                       1.42857143E-01  0.00000000E+00  1.42857143E-01
                       1.60714286E-01  0.00000000E+00  1.60714286E-01
                       1.78571429E-01  0.00000000E+00  1.78571429E-01
                       1.96428571E-01  0.00000000E+00  1.96428571E-01
                       2.14285714E-01  0.00000000E+00  2.14285714E-01
                       2.32142857E-01  0.00000000E+00  2.32142857E-01
                       2.50000000E-01  0.00000000E+00  2.50000000E-01
                       2.67857143E-01  0.00000000E+00  2.67857143E-01
                       2.85714286E-01  0.00000000E+00  2.85714286E-01
                       3.03571429E-01  0.00000000E+00  3.03571429E-01
                       3.21428571E-01  0.00000000E+00  3.21428571E-01
                       3.39285714E-01  0.00000000E+00  3.39285714E-01
                       3.57142857E-01  0.00000000E+00  3.57142857E-01
                       3.75000000E-01  0.00000000E+00  3.75000000E-01
                       3.92857143E-01  0.00000000E+00  3.92857143E-01
                       4.10714286E-01  0.00000000E+00  4.10714286E-01
                       4.28571429E-01  0.00000000E+00  4.28571429E-01
                       4.46428571E-01  0.00000000E+00  4.46428571E-01
                       4.64285714E-01  0.00000000E+00  4.64285714E-01
                       4.82142857E-01  0.00000000E+00  4.82142857E-01
                       5.00000000E-01  0.00000000E+00  5.00000000E-01
                       5.00000000E-01  1.78571429E-02  5.17857143E-01
                       5.00000000E-01  3.57142857E-02  5.35714286E-01
                       5.00000000E-01  5.35714286E-02  5.53571429E-01
                       5.00000000E-01  7.14285714E-02  5.71428571E-01
                       5.00000000E-01  8.92857143E-02  5.89285714E-01
                       5.00000000E-01  1.07142857E-01  6.07142857E-01
                       5.00000000E-01  1.25000000E-01  6.25000000E-01
                       5.00000000E-01  1.42857143E-01  6.42857143E-01
                       5.00000000E-01  1.60714286E-01  6.60714286E-01
                       5.00000000E-01  1.78571429E-01  6.78571429E-01
                       5.00000000E-01  1.96428571E-01  6.96428571E-01
                       5.00000000E-01  2.14285714E-01  7.14285714E-01
                       5.00000000E-01  2.32142857E-01  7.32142857E-01
                       5.00000000E-01  2.50000000E-01  7.50000000E-01
                       4.87500000E-01  2.62500000E-01  7.50000000E-01
                       4.75000000E-01  2.75000000E-01  7.50000000E-01
                       4.62500000E-01  2.87500000E-01  7.50000000E-01
                       4.50000000E-01  3.00000000E-01  7.50000000E-01
                       4.37500000E-01  3.12500000E-01  7.50000000E-01
                       4.25000000E-01  3.25000000E-01  7.50000000E-01
                       4.12500000E-01  3.37500000E-01  7.50000000E-01
                       outvar_i_n : Printing only first  50 k-points.
           kptopt         -11
P           mkmem          99
            natom           2
            nband          12
           nbdbuf           4
           ndivsm          10
            ngfft          32      32      32
             nkpt         198
            nstep         150
             nsym          48
           ntypat           2
           prtden           0
           prtpot           1
            prtwf          -1
            rprim      0.0000000000E+00  4.0182361526E+00  4.0182361526E+00
                       4.0182361526E+00  0.0000000000E+00  4.0182361526E+00
                       4.0182361526E+00  4.0182361526E+00  0.0000000000E+00
           shiftk      5.00000000E-01  5.00000000E-01  5.00000000E-01
          spgroup         225
           symrel      1  0  0   0  1  0   0  0  1      -1  0  0   0 -1  0   0  0 -1
                       0 -1  1   0 -1  0   1 -1  0       0  1 -1   0  1  0  -1  1  0
                      -1  0  0  -1  0  1  -1  1  0       1  0  0   1  0 -1   1 -1  0
                       0  1 -1   1  0 -1   0  0 -1       0 -1  1  -1  0  1   0  0  1
                      -1  0  0  -1  1  0  -1  0  1       1  0  0   1 -1  0   1  0 -1
                       0 -1  1   1 -1  0   0 -1  0       0  1 -1  -1  1  0   0  1  0
                       1  0  0   0  0  1   0  1  0      -1  0  0   0  0 -1   0 -1  0
                       0  1 -1   0  0 -1   1  0 -1       0 -1  1   0  0  1  -1  0  1
                      -1  0  1  -1  1  0  -1  0  0       1  0 -1   1 -1  0   1  0  0
                       0 -1  0   1 -1  0   0 -1  1       0  1  0  -1  1  0   0  1 -1
                       1  0 -1   0  0 -1   0  1 -1      -1  0  1   0  0  1   0 -1  1
                       0  1  0   0  0  1   1  0  0       0 -1  0   0  0 -1  -1  0  0
                       1  0 -1   0  1 -1   0  0 -1      -1  0  1   0 -1  1   0  0  1
                       0 -1  0   0 -1  1   1 -1  0       0  1  0   0  1 -1  -1  1  0
                      -1  0  1  -1  0  0  -1  1  0       1  0 -1   1  0  0   1 -1  0
                       0  1  0   1  0  0   0  0  1       0 -1  0  -1  0  0   0  0 -1
                       0  0 -1   0  1 -1   1  0 -1       0  0  1   0 -1  1  -1  0  1
                       1 -1  0   0 -1  1   0 -1  0      -1  1  0   0  1 -1   0  1  0
                       0  0  1   1  0  0   0  1  0       0  0 -1  -1  0  0   0 -1  0
                      -1  1  0  -1  0  0  -1  0  1       1 -1  0   1  0  0   1  0 -1
                       0  0  1   0  1  0   1  0  0       0  0 -1   0 -1  0  -1  0  0
                       1 -1  0   0 -1  0   0 -1  1      -1  1  0   0  1  0   0  1 -1
                       0  0 -1   1  0 -1   0  1 -1       0  0  1  -1  0  1   0 -1  1
                      -1  1  0  -1  0  1  -1  0  0       1 -1  0   1  0 -1   1  0  0
           tolwfr      1.00000000E-18
            typat      2  1
                       outvars : Printing only first  50 k-points.
           xangst      0.0000000000E+00  0.0000000000E+00  0.0000000000E+00
                       2.1263589907E+00  2.1263589907E+00  2.1263589907E+00
            xcart      0.0000000000E+00  0.0000000000E+00  0.0000000000E+00
                       4.0182361526E+00  4.0182361526E+00  4.0182361526E+00
             xred      0.0000000000E+00  0.0000000000E+00  0.0000000000E+00
                       5.0000000000E-01  5.0000000000E-01  5.0000000000E-01
            znucl        8.00000   12.00000

- Timing analysis has been suppressed with timopt=0

 Suggested references for the acknowledgment of ABINIT usage.

 Calculation completed.
.Delivered   0 WARNINGs and   0 COMMENTs to log file.