.Version 9.2.0 of ABINIT

 ABINIT is a project of the Universite Catholique de Louvain,
 Corning Inc. and other collaborators, see ~abinit/doc/developers/contributors.txt .
 acknowledgments of the ABINIT effort.

.Starting date : Mon 21 Sep 2020.
- ( at 02h26 )

- input  file    -> /Users/gmatteo/git_repos/MgO_eph_zpr/flow_zpr_mgo/w0/t0/run.abi
- output file    -> /Users/gmatteo/git_repos/MgO_eph_zpr/flow_zpr_mgo/w0/t0/run.abo
- root for input  files -> /Users/gmatteo/git_repos/MgO_eph_zpr/flow_zpr_mgo/w0/t0/indata/in
- root for output files -> /Users/gmatteo/git_repos/MgO_eph_zpr/flow_zpr_mgo/w0/t0/outdata/out

 Symmetries : space group Fm -3 m (#225); Bravais cF (face-center cubic)
     intxc =       0    ionmov =       0      iscf =       7    lmnmax =       5
     lnmax =       5     mgfft =      32  mpssoang =       3    mqgrid =    3001
     natom =       2  nloc_mem =       1    nspden =       1   nspinor =       1
    nsppol =       1      nsym =      48    n1xccc =    2501    ntypat =       2
    occopt =       1   xclevel =       2
-    mband =          12        mffmem =           1         mkmem =           4
       mpw =        1304          nfft =       32768          nkpt =           8
  Rough estimation (10% accuracy) of disk space for files :

------------- Echo of variables that govern the present computation ------------
-
- outvars: echo of selected default values
-   iomode0 =  0 , fftalg0 =312 , wfoptalg0 =  0
-
- outvars: echo of global parameters not present in the input file
-  max_nthreads =    0
-
 -outvars: echo values of preprocessed input variables --------
-          iomode           3
            acell      1.0000000000E+00  1.0000000000E+00  1.0000000000E+00 Bohr
              amu      1.59994000E+01  2.43050000E+01
           diemac      9.00000000E+00
             ecut      3.50000000E+01 Hartree
-          fftalg         312
           istwfk        2    0    3    0    0    0    7    0
              ixc          11
              kpt      0.00000000E+00  0.00000000E+00  0.00000000E+00
                       2.50000000E-01  0.00000000E+00  0.00000000E+00
                       5.00000000E-01  0.00000000E+00  0.00000000E+00
                       2.50000000E-01  2.50000000E-01  0.00000000E+00
                       5.00000000E-01  2.50000000E-01  0.00000000E+00
                      -2.50000000E-01  2.50000000E-01  0.00000000E+00
                       5.00000000E-01  5.00000000E-01  0.00000000E+00
                      -2.50000000E-01  5.00000000E-01  2.50000000E-01
         kptrlatt        4    0    0      0    4    0      0    0    4
          kptrlen      2.27305763E+01
P           mkmem           4
            natom           2
            nband          12
           nbdbuf           4
            ngfft          32      32      32
             nkpt           8
            nstep         150
             nsym          48
           ntypat           2
              occ      2.000000  2.000000  2.000000  2.000000  2.000000  2.000000
                       2.000000  2.000000  0.000000  0.000000  0.000000  0.000000
           prtpot           1
            rprim      0.0000000000E+00  4.0182361526E+00  4.0182361526E+00
                       4.0182361526E+00  0.0000000000E+00  4.0182361526E+00
                       4.0182361526E+00  4.0182361526E+00  0.0000000000E+00
          spgroup         225
           symrel      1  0  0   0  1  0   0  0  1      -1  0  0   0 -1  0   0  0 -1
                       0 -1  1   0 -1  0   1 -1  0       0  1 -1   0  1  0  -1  1  0
                      -1  0  0  -1  0  1  -1  1  0       1  0  0   1  0 -1   1 -1  0
                       0  1 -1   1  0 -1   0  0 -1       0 -1  1  -1  0  1   0  0  1
                      -1  0  0  -1  1  0  -1  0  1       1  0  0   1 -1  0   1  0 -1
                       0 -1  1   1 -1  0   0 -1  0       0  1 -1  -1  1  0   0  1  0
                       1  0  0   0  0  1   0  1  0      -1  0  0   0  0 -1   0 -1  0
                       0  1 -1   0  0 -1   1  0 -1       0 -1  1   0  0  1  -1  0  1
                      -1  0  1  -1  1  0  -1  0  0       1  0 -1   1 -1  0   1  0  0
                       0 -1  0   1 -1  0   0 -1  1       0  1  0  -1  1  0   0  1 -1
                       1  0 -1   0  0 -1   0  1 -1      -1  0  1   0  0  1   0 -1  1
                       0  1  0   0  0  1   1  0  0       0 -1  0   0  0 -1  -1  0  0
                       1  0 -1   0  1 -1   0  0 -1      -1  0  1   0 -1  1   0  0  1
                       0 -1  0   0 -1  1   1 -1  0       0  1  0   0  1 -1  -1  1  0
                      -1  0  1  -1  0  0  -1  1  0       1  0 -1   1  0  0   1 -1  0
                       0  1  0   1  0  0   0  0  1       0 -1  0  -1  0  0   0  0 -1
                       0  0 -1   0  1 -1   1  0 -1       0  0  1   0 -1  1  -1  0  1
                       1 -1  0   0 -1  1   0 -1  0      -1  1  0   0  1 -1   0  1  0
                       0  0  1   1  0  0   0  1  0       0  0 -1  -1  0  0   0 -1  0
                      -1  1  0  -1  0  0  -1  0  1       1 -1  0   1  0  0   1  0 -1
                       0  0  1   0  1  0   1  0  0       0  0 -1   0 -1  0  -1  0  0
                       1 -1  0   0 -1  0   0 -1  1      -1  1  0   0  1  0   0  1 -1
                       0  0 -1   1  0 -1   0  1 -1       0  0  1  -1  0  1   0 -1  1
                      -1  1  0  -1  0  1  -1  0  0       1 -1  0   1  0 -1   1  0  0
           tolvrs      1.00000000E-10
            typat      2  1
              wtk        0.01563    0.12500    0.06250    0.09375    0.37500    0.18750
                         0.04688    0.09375
           xangst      0.0000000000E+00  0.0000000000E+00  0.0000000000E+00
                       2.1263589907E+00  2.1263589907E+00  2.1263589907E+00
            xcart      0.0000000000E+00  0.0000000000E+00  0.0000000000E+00
                       4.0182361526E+00  4.0182361526E+00  4.0182361526E+00
             xred      0.0000000000E+00  0.0000000000E+00  0.0000000000E+00
                       5.0000000000E-01  5.0000000000E-01  5.0000000000E-01
            znucl        8.00000   12.00000

 chkinp: Checking input parameters for consistency.

== DATASET  1 ==================================================================
-   mpi_nproc: 2, omp_nthreads: -1 (-1 if OMP is not activated)

--- !DatasetInfo
iteration_state: {dtset: 1, }
dimensions: {natom: 2, nkpt: 8, mband: 12, nsppol: 1, nspinor: 1, nspden: 1, mpw: 1304, }
cutoff_energies: {ecut:  35.0, pawecutdg:  -1.0, }
electrons: {nelect:   1.60000000E+01, charge:   0.00000000E+00, occopt:   1.00000000E+00, tsmear:   1.00000000E-02, }
meta: {optdriver: 0, ionmov: 0, optcell: 0, iscf: 7, paral_kgb: 0, }
...

 Real(R)+Recip(G) space primitive vectors, cartesian coordinates (Bohr,Bohr^-1):
 R(1)=  0.0000000  4.0182362  4.0182362  G(1)= -0.1244327  0.1244327  0.1244327
 R(2)=  4.0182362  0.0000000  4.0182362  G(2)=  0.1244327 -0.1244327  0.1244327
 R(3)=  4.0182362  4.0182362  0.0000000  G(3)=  0.1244327  0.1244327 -0.1244327
 Unit cell volume ucvol=  1.2975866E+02 bohr^3
 Angles (23,13,12)=  6.00000000E+01  6.00000000E+01  6.00000000E+01 degrees

 getcut: wavevector=  0.0000  0.0000  0.0000  ngfft=  32  32  32
         ecut(hartree)=     35.000   => boxcut(ratio)=   2.11446

--- Pseudopotential description ------------------------------------------------
- pspini: atom type   1  psp file is /Users/gmatteo/git_repos/MgO_eph_zpr/O.psp8
- pspatm: opening atomic psp file    /Users/gmatteo/git_repos/MgO_eph_zpr/O.psp8
- O     ONCVPSP  r_core=  1.36  1.46  1.26
-  8.00000   6.00000    151103                znucl, zion, pspdat
    8   11    2    4       600   0.00000      pspcod,pspxc,lmax,lloc,mmax,r2well
    5.99000000000000    4.00000000000000    0.00000000000000   rchrg,fchrg,qchrg
     nproj     2     2     1
     extension_switch     1
  pspatm : epsatm=    6.19401560
         --- l  ekb(1:nproj) -->
             0    5.257212    0.704241
             1   -5.135443   -1.451781
             2   -4.371486
 pspatm: atomic psp has been read  and splines computed

- pspini: atom type   2  psp file is /Users/gmatteo/git_repos/MgO_eph_zpr/Mg-sp-gw.psp8
- pspatm: opening atomic psp file    /Users/gmatteo/git_repos/MgO_eph_zpr/Mg-sp-gw.psp8
- Mg    ONCVPSP  r_core=  1.16  1.56
- 12.00000  10.00000    150902                znucl, zion, pspdat
    8   11    1    4       400   0.00000      pspcod,pspxc,lmax,lloc,mmax,r2well
    3.99000000000000    0.00000000000000    0.00000000000000   rchrg,fchrg,qchrg
     nproj     2     2
     extension_switch     1
  pspatm : epsatm=    9.22508734
         --- l  ekb(1:nproj) -->
             0    2.568049   -0.805950
             1   -6.605901   -2.664074
 pspatm: atomic psp has been read  and splines computed

   2.46705647E+02                                ecore*ucvol(ha*bohr**3)

_setup2: Arith. and geom. avg. npw (full set) are    1285.047    1284.948

--- !BeginCycle
iteration_state: {dtset: 1, }
solver: {iscf: 7, nstep: 150, nline: 4, wfoptalg: 0, }
tolerances: {tolvrs: 1.00E-10, }
...

     iter   Etot(hartree)      deltaE(h)  residm     vres2
 ETOT  1  -75.946036220964    -7.595E+01 5.857E-02 3.551E+02
 ETOT  2  -75.933155486344     1.288E-02 1.296E-05 4.036E+02
 ETOT  3  -76.055241640430    -1.221E-01 4.165E-03 3.254E+00
 ETOT  4  -76.056137671682    -8.960E-04 2.270E-05 8.169E-03
 ETOT  5  -76.056137762075    -9.039E-08 4.559E-09 7.245E-04
 ETOT  6  -76.056137979830    -2.178E-07 6.563E-09 9.019E-06
 ETOT  7  -76.056137980523    -6.924E-10 2.491E-11 5.792E-07
 ETOT  8  -76.056137980645    -1.221E-10 4.499E-12 1.520E-08
 ETOT  9  -76.056137980651    -5.755E-12 1.937E-13 1.594E-10
 ETOT 10  -76.056137980647     3.794E-12 1.315E-15 4.110E-12

 At SCF step   10       vres2   =  4.11E-12 < tolvrs=  1.00E-10 =>converged.

 Cartesian components of stress tensor (hartree/bohr^3)
  sigma(1 1)=  2.17549021E-04  sigma(3 2)=  0.00000000E+00
  sigma(2 2)=  2.17549021E-04  sigma(3 1)=  0.00000000E+00
  sigma(3 3)=  2.17549021E-04  sigma(2 1)=  0.00000000E+00

--- !ResultsGS
iteration_state: {dtset: 1, }
comment   : Summary of ground state results
lattice_vectors:
- [  0.0000000,   4.0182362,   4.0182362, ]
- [  4.0182362,   0.0000000,   4.0182362, ]
- [  4.0182362,   4.0182362,   0.0000000, ]
lattice_lengths: [   5.68264,    5.68264,    5.68264, ]
lattice_angles: [ 60.000,  60.000,  60.000, ] # degrees, (23, 13, 12)
lattice_volume:   1.2975866E+02
convergence: {deltae:  3.794E-12, res2:  4.110E-12, residm:  1.315E-15, diffor: null, }
etotal    :  -7.60561380E+01
entropy   :   0.00000000E+00
fermie    :   1.64996200E-01
cartesian_stress_tensor: # hartree/bohr^3
- [  2.17549021E-04,   0.00000000E+00,   0.00000000E+00, ]
- [  0.00000000E+00,   2.17549021E-04,   0.00000000E+00, ]
- [  0.00000000E+00,   0.00000000E+00,   2.17549021E-04, ]
pressure_GPa:  -6.4005E+00
xred      :
- [  0.0000E+00,   0.0000E+00,   0.0000E+00, Mg]
- [  5.0000E-01,   5.0000E-01,   5.0000E-01,  O]
cartesian_forces: # hartree/bohr
- [ -0.00000000E+00,  -0.00000000E+00,  -0.00000000E+00, ]
- [ -0.00000000E+00,  -0.00000000E+00,  -0.00000000E+00, ]
force_length_stats: {min:   0.00000000E+00, max:   0.00000000E+00, mean:   0.00000000E+00, }
...

 Integrated electronic density in atomic spheres:
 Atom  Sphere_radius  Integrated_density
    1        2.00000          8.36806442
    2        2.00000          6.28070878

 ----iterations are completed or convergence reached----

 Mean square residual over all n,k,spin=   61.589E-17; max=  13.147E-16
 reduced coordinates (array xred) for    2 atoms
       0.000000000000      0.000000000000      0.000000000000
       0.500000000000      0.500000000000      0.500000000000
 rms dE/dt=  0.0000E+00; max dE/dt=  0.0000E+00; dE/dt below (all hartree)
    1       0.000000000000      0.000000000000      0.000000000000
    2       0.000000000000      0.000000000000      0.000000000000

 cartesian coordinates (angstrom) at end:
    1      0.00000000000000     0.00000000000000     0.00000000000000
    2      2.12635899068829     2.12635899068829     2.12635899068829

 cartesian forces (hartree/bohr) at end:
    1     -0.00000000000000    -0.00000000000000    -0.00000000000000
    2     -0.00000000000000    -0.00000000000000    -0.00000000000000
 frms,max,avg= 0.0000000E+00 0.0000000E+00   0.000E+00  0.000E+00  0.000E+00 h/b

 cartesian forces (eV/Angstrom) at end:
    1     -0.00000000000000    -0.00000000000000    -0.00000000000000
    2     -0.00000000000000    -0.00000000000000    -0.00000000000000
 frms,max,avg= 0.0000000E+00 0.0000000E+00   0.000E+00  0.000E+00  0.000E+00 e/A
 length scales=  1.000000000000  1.000000000000  1.000000000000 bohr
              =  0.529177208590  0.529177208590  0.529177208590 angstroms
 prteigrs : about to open file /Users/gmatteo/git_repos/MgO_eph_zpr/flow_zpr_mgo/w0/t0/outdata/out_EIG
 Fermi (or HOMO) energy (hartree) =   0.16500   Average Vxc (hartree)=  -0.41354
 Eigenvalues (hartree) for nkpt=   8  k points:
 kpt#   1, nband= 12, wtk=  0.01563, kpt=  0.0000  0.0000  0.0000 (reduced coord)
  -2.50009   -1.27738   -1.27738   -1.27738   -0.46171    0.16500    0.16500    0.16500
   0.32959    0.74474    0.74474    0.74474
 prteigrs : prtvol=0 or 1, do not print more k-points.

--- !EnergyTerms
iteration_state     : {dtset: 1, }
comment             : Components of total free energy in Hartree
kinetic             :  4.52685095351350E+01
hartree             :  2.09922967185548E+01
xc                  : -1.22344358802261E+01
Ewald energy        : -4.69303669330816E+01
psp_core            :  1.90126531167371E+00
local_psp           : -6.43581916962576E+01
non_local_psp       : -2.06952150364449E+01
total_energy        : -7.60561379806467E+01
total_energy_eV     : -2.06959276550050E+03
band_energy         : -1.29372456654782E+01
...

 Cartesian components of stress tensor (hartree/bohr^3)
  sigma(1 1)=  2.17549021E-04  sigma(3 2)=  0.00000000E+00
  sigma(2 2)=  2.17549021E-04  sigma(3 1)=  0.00000000E+00
  sigma(3 3)=  2.17549021E-04  sigma(2 1)=  0.00000000E+00

-Cartesian components of stress tensor (GPa)         [Pressure= -6.4005E+00 GPa]
- sigma(1 1)=  6.40051210E+00  sigma(3 2)=  0.00000000E+00
- sigma(2 2)=  6.40051210E+00  sigma(3 1)=  0.00000000E+00
- sigma(3 3)=  6.40051210E+00  sigma(2 1)=  0.00000000E+00

== END DATASET(S) ==============================================================

 -outvars: echo values of variables after computation  --------
-          iomode           3
            acell      1.0000000000E+00  1.0000000000E+00  1.0000000000E+00 Bohr
              amu      1.59994000E+01  2.43050000E+01
           diemac      9.00000000E+00
             ecut      3.50000000E+01 Hartree
           etotal     -7.6056137981E+01
            fcart     -0.0000000000E+00 -0.0000000000E+00 -0.0000000000E+00
                      -0.0000000000E+00 -0.0000000000E+00 -0.0000000000E+00
-          fftalg         312
           istwfk        2    0    3    0    0    0    7    0
              ixc          11
              kpt      0.00000000E+00  0.00000000E+00  0.00000000E+00
                       2.50000000E-01  0.00000000E+00  0.00000000E+00
                       5.00000000E-01  0.00000000E+00  0.00000000E+00
                       2.50000000E-01  2.50000000E-01  0.00000000E+00
                       5.00000000E-01  2.50000000E-01  0.00000000E+00
                      -2.50000000E-01  2.50000000E-01  0.00000000E+00
                       5.00000000E-01  5.00000000E-01  0.00000000E+00
                      -2.50000000E-01  5.00000000E-01  2.50000000E-01
         kptrlatt        4    0    0      0    4    0      0    0    4
          kptrlen      2.27305763E+01
P           mkmem           4
            natom           2
            nband          12
           nbdbuf           4
            ngfft          32      32      32
             nkpt           8
            nstep         150
             nsym          48
           ntypat           2
              occ      2.000000  2.000000  2.000000  2.000000  2.000000  2.000000
                       2.000000  2.000000  0.000000  0.000000  0.000000  0.000000
           prtpot           1
            rprim      0.0000000000E+00  4.0182361526E+00  4.0182361526E+00
                       4.0182361526E+00  0.0000000000E+00  4.0182361526E+00
                       4.0182361526E+00  4.0182361526E+00  0.0000000000E+00
          spgroup         225
           strten      2.1754902112E-04  2.1754902112E-04  2.1754902112E-04
                       0.0000000000E+00  0.0000000000E+00  0.0000000000E+00
           symrel      1  0  0   0  1  0   0  0  1      -1  0  0   0 -1  0   0  0 -1
                       0 -1  1   0 -1  0   1 -1  0       0  1 -1   0  1  0  -1  1  0
                      -1  0  0  -1  0  1  -1  1  0       1  0  0   1  0 -1   1 -1  0
                       0  1 -1   1  0 -1   0  0 -1       0 -1  1  -1  0  1   0  0  1
                      -1  0  0  -1  1  0  -1  0  1       1  0  0   1 -1  0   1  0 -1
                       0 -1  1   1 -1  0   0 -1  0       0  1 -1  -1  1  0   0  1  0
                       1  0  0   0  0  1   0  1  0      -1  0  0   0  0 -1   0 -1  0
                       0  1 -1   0  0 -1   1  0 -1       0 -1  1   0  0  1  -1  0  1
                      -1  0  1  -1  1  0  -1  0  0       1  0 -1   1 -1  0   1  0  0
                       0 -1  0   1 -1  0   0 -1  1       0  1  0  -1  1  0   0  1 -1
                       1  0 -1   0  0 -1   0  1 -1      -1  0  1   0  0  1   0 -1  1
                       0  1  0   0  0  1   1  0  0       0 -1  0   0  0 -1  -1  0  0
                       1  0 -1   0  1 -1   0  0 -1      -1  0  1   0 -1  1   0  0  1
                       0 -1  0   0 -1  1   1 -1  0       0  1  0   0  1 -1  -1  1  0
                      -1  0  1  -1  0  0  -1  1  0       1  0 -1   1  0  0   1 -1  0
                       0  1  0   1  0  0   0  0  1       0 -1  0  -1  0  0   0  0 -1
                       0  0 -1   0  1 -1   1  0 -1       0  0  1   0 -1  1  -1  0  1
                       1 -1  0   0 -1  1   0 -1  0      -1  1  0   0  1 -1   0  1  0
                       0  0  1   1  0  0   0  1  0       0  0 -1  -1  0  0   0 -1  0
                      -1  1  0  -1  0  0  -1  0  1       1 -1  0   1  0  0   1  0 -1
                       0  0  1   0  1  0   1  0  0       0  0 -1   0 -1  0  -1  0  0
                       1 -1  0   0 -1  0   0 -1  1      -1  1  0   0  1  0   0  1 -1
                       0  0 -1   1  0 -1   0  1 -1       0  0  1  -1  0  1   0 -1  1
                      -1  1  0  -1  0  1  -1  0  0       1 -1  0   1  0 -1   1  0  0
           tolvrs      1.00000000E-10
            typat      2  1
              wtk        0.01563    0.12500    0.06250    0.09375    0.37500    0.18750
                         0.04688    0.09375
           xangst      0.0000000000E+00  0.0000000000E+00  0.0000000000E+00
                       2.1263589907E+00  2.1263589907E+00  2.1263589907E+00
            xcart      0.0000000000E+00  0.0000000000E+00  0.0000000000E+00
                       4.0182361526E+00  4.0182361526E+00  4.0182361526E+00
             xred      0.0000000000E+00  0.0000000000E+00  0.0000000000E+00
                       5.0000000000E-01  5.0000000000E-01  5.0000000000E-01
            znucl        8.00000   12.00000

- Timing analysis has been suppressed with timopt=0

 Suggested references for the acknowledgment of ABINIT usage.

 Calculation completed.
.Delivered   0 WARNINGs and   0 COMMENTs to log file.